(declare-fun temp3763_1 () (_ BitVec 64))
(declare-fun var140390 () (_ BitVec 64))
(declare-fun temp3763_3 () (_ BitVec 64))
(declare-fun temp3763_2 () (_ BitVec 64))
(declare-fun temp3763_4 () (_ BitVec 64))
(declare-fun var2565548 () (_ BitVec 64))
(declare-fun temp3763_5 () (_ BitVec 64))
(declare-fun var2634158 () (_ BitVec 64))
(declare-fun temp3763_7 () (_ BitVec 64))
(declare-fun temp3763_6 () (_ BitVec 64))
(declare-fun temp3763_9 () (_ BitVec 64))
(declare-fun temp3763_8 () (_ BitVec 64))
(declare-fun temp3763_11 () (_ BitVec 64))
(declare-fun temp3763_10 () (_ BitVec 64))
(declare-fun temp3763_13 () (_ BitVec 64))
(declare-fun temp3763_12 () (_ BitVec 64))
(declare-fun temp3763_14 () (_ BitVec 64))
(declare-fun var2634159 () (_ BitVec 64))
(declare-fun temp3763_15 () (_ BitVec 64))
(declare-fun var4727387 () (_ BitVec 64))
(declare-fun temp3763_16 () (_ BitVec 64))
(declare-fun var77589 () (_ BitVec 64))
(declare-fun var5321298 () (_ BitVec 64))
(declare-fun temp3763_17 () (_ BitVec 64))
(declare-fun var5450732 () (_ BitVec 64))
(declare-fun var5509102 () (_ BitVec 64))
(declare-fun var5509101 () (_ BitVec 64))
(declare-fun var5450745 () (_ BitVec 64))
(declare-fun temp3763_18 () (_ BitVec 64))
(declare-fun var5574638 () (_ BitVec 64))
(declare-fun var5574637 () (_ BitVec 64))
(declare-fun var5450749 () (_ BitVec 64))
(declare-fun temp3763_19 () (_ BitVec 64))
(declare-fun var5450759 () (_ BitVec 64))
(declare-fun temp3763_20 () (_ BitVec 64))
(declare-fun var77644 () (_ BitVec 64))
(declare-fun temp3763_21 () (_ BitVec 64))
(declare-fun temp3763_22 () (_ BitVec 64))
(declare-fun var77772 () (_ BitVec 64))
(declare-fun var77776 () (_ BitVec 64))
(declare-fun temp3763_23 () (_ BitVec 64))
(declare-fun var77779 () (_ BitVec 64))
(declare-fun temp3763_24 () (_ BitVec 64))
(declare-fun var77567 () (_ BitVec 64))
(declare-fun temp3763_26 () (_ BitVec 64))
(declare-fun var77802 () (_ BitVec 64))
(declare-fun temp3763_27 () (_ BitVec 64))
(declare-fun var77803 () (_ BitVec 64))
(declare-fun temp3763_28 () (_ BitVec 64))
(declare-fun temp3763_29 () (_ BitVec 64))
(declare-fun var77861 () (_ BitVec 64))
(declare-fun temp3763_31 () (_ BitVec 64))
(declare-fun temp3763_30 () (_ BitVec 64))
(declare-fun temp3763_32 () (_ BitVec 64))
(declare-fun var6299293 () (_ BitVec 64))
(declare-fun temp3763_33 () (_ BitVec 64))
(declare-fun var77862 () (_ BitVec 64))
(assert (= temp3763_1 #x0000000000000000))
(assert (= var140390 temp3763_1))
(assert (= temp3763_3 #xffffffffffffffff))
(assert (= temp3763_2 temp3763_3))
(assert (= temp3763_4 #x0000000000000000))
(assert (= var2565548 temp3763_4))
(assert (= temp3763_5 #x0000000000000000))
(assert (= var2634158 temp3763_5))
(assert (= temp3763_7 #x0000000000000001))
(assert (= temp3763_6 temp3763_7))
(assert (= temp3763_9 #x0000000000000000))
(assert (= temp3763_8 temp3763_9))
(assert (= temp3763_11 #x0000000000000001))
(assert (= temp3763_10 temp3763_11))
(assert (= temp3763_13 #x0000000000000001))
(assert (= temp3763_12 temp3763_13))
(assert (= temp3763_14 #x0000000000000001))
(assert (= var2634159 (bvadd var2634158 temp3763_14)))
(assert (= temp3763_15 #x0000000000000001))
(assert (= var4727387 temp3763_15))
(assert (= temp3763_16 #x0000000000000000))
(assert (= var77589 temp3763_16))
(assert (= var5321298 var77589))
(assert (= temp3763_17 #x0000000000000000))
(assert (= var5450732 temp3763_17))
(assert (= var5509102 var5450732))
(assert (= var5509101 var5509102))
(assert (= var5450745 var5509101))
(assert (= temp3763_18 #x0000000000000000))
(assert (= var5574638 temp3763_18))
(assert (= var5574637 var5574638))
(assert (= var5450749 var5574637))
(assert (= temp3763_19 #x0000000000000001))
(assert (= var5450759 (bvadd var5450732 temp3763_19)))
(assert (= temp3763_20 #x0000000000000000))
(assert (= var77644
   (ite (= var77589 temp3763_20) #x0000000000000001 #x0000000000000000)))
(assert (= temp3763_21 #x0000000000000001))
(assert (= var77644 temp3763_21))
(assert (= temp3763_22 #x0000000000000000))
(assert (= var77772 temp3763_22))
(assert (= var77776 var77772))
(assert (= temp3763_23 #x0000000000000000))
(assert (= var77779
   (ite (= var77776 temp3763_23) #x0000000000000001 #x0000000000000000)))
(assert (= temp3763_24 #x0000000000000001))
(assert (= var77567 (bvadd var77589 temp3763_24)))
(assert (= temp3763_26 #x0000000000000014))
(assert (= var77802 temp3763_26))
(assert (= temp3763_27 #x0000000000000014))
(assert (= var77803
   (ite (= var77802 temp3763_27) #x0000000000000001 #x0000000000000000)))
(assert (= temp3763_28 #x0000000000000001))
(assert (= var77803 temp3763_28))
(assert (= temp3763_29 #x0000000000000000))
(assert (= var77861 temp3763_29))
(assert (= temp3763_31 #x0000000000000001))
(assert (= temp3763_30 temp3763_31))
(assert (= temp3763_32 #x0000000000000002))
(assert (= var6299293 temp3763_32))
(assert (= temp3763_33 #x0000000000000001))
(assert (= var77862 (bvadd var77861 temp3763_33)))
(model-add temp3763_1 () (_ BitVec 64) #x0000000000000000)
(model-add var140390 () (_ BitVec 64) #x0000000000000000)
(model-add temp3763_3 () (_ BitVec 64) #xffffffffffffffff)
(model-add temp3763_2 () (_ BitVec 64) #xffffffffffffffff)
(model-add temp3763_4 () (_ BitVec 64) #x0000000000000000)
(model-add var2565548 () (_ BitVec 64) #x0000000000000000)
(model-add temp3763_5 () (_ BitVec 64) #x0000000000000000)
(model-add var2634158 () (_ BitVec 64) #x0000000000000000)
(model-add temp3763_7 () (_ BitVec 64) #x0000000000000001)
(model-add temp3763_6 () (_ BitVec 64) #x0000000000000001)
(model-add temp3763_9 () (_ BitVec 64) #x0000000000000000)
(model-add temp3763_8 () (_ BitVec 64) #x0000000000000000)
(model-add temp3763_11 () (_ BitVec 64) #x0000000000000001)
(model-add temp3763_10 () (_ BitVec 64) #x0000000000000001)
(model-add temp3763_13 () (_ BitVec 64) #x0000000000000001)
(model-add temp3763_12 () (_ BitVec 64) #x0000000000000001)
(model-add temp3763_14 () (_ BitVec 64) #x0000000000000001)
(model-add var2634159 () (_ BitVec 64) #x0000000000000001)
(model-add temp3763_15 () (_ BitVec 64) #x0000000000000001)
(model-add var4727387 () (_ BitVec 64) #x0000000000000001)
(model-add temp3763_16 () (_ BitVec 64) #x0000000000000000)
(model-add var77589 () (_ BitVec 64) #x0000000000000000)
(model-add var5321298 () (_ BitVec 64) #x0000000000000000)
(model-add temp3763_17 () (_ BitVec 64) #x0000000000000000)
(model-add var5450732 () (_ BitVec 64) #x0000000000000000)
(model-add var5509102 () (_ BitVec 64) #x0000000000000000)
(model-add var5509101 () (_ BitVec 64) #x0000000000000000)
(model-add var5450745 () (_ BitVec 64) #x0000000000000000)
(model-add temp3763_18 () (_ BitVec 64) #x0000000000000000)
(model-add var5574638 () (_ BitVec 64) #x0000000000000000)
(model-add var5574637 () (_ BitVec 64) #x0000000000000000)
(model-add var5450749 () (_ BitVec 64) #x0000000000000000)
(model-add temp3763_19 () (_ BitVec 64) #x0000000000000001)
(model-add var5450759 () (_ BitVec 64) #x0000000000000001)
(model-add temp3763_20 () (_ BitVec 64) #x0000000000000000)
(model-add var77644 () (_ BitVec 64) #x0000000000000001)
(model-add temp3763_21 () (_ BitVec 64) #x0000000000000001)

